c DIMACS CNF — Option-1 encoding (z_ijt)
c N=5 M=3
p cnf 111 3017
1 2 3 4 5 6 7 8 9 10 11 12 13 14 15 16 17 18 19 20 21 22 23 24 0
-1 -2 0
-1 -3 0
-1 -4 0
-1 -5 0
-1 -6 0
-1 -7 0
-1 -8 0
-1 -9 0
-1 -10 0
-1 -11 0
-1 -12 0
-1 -13 0
-1 -14 0
-1 -15 0
-1 -16 0
-1 -17 0
-1 -18 0
-1 -19 0
-1 -20 0
-1 -21 0
-1 -22 0
-1 -23 0
-1 -24 0
-2 -3 0
-2 -4 0
-2 -5 0
-2 -6 0
-2 -7 0
-2 -8 0
-2 -9 0
-2 -10 0
-2 -11 0
-2 -12 0
-2 -13 0
-2 -14 0
-2 -15 0
-2 -16 0
-2 -17 0
-2 -18 0
-2 -19 0
-2 -20 0
-2 -21 0
-2 -22 0
-2 -23 0
-2 -24 0
-3 -4 0
-3 -5 0
-3 -6 0
-3 -7 0
-3 -8 0
-3 -9 0
-3 -10 0
-3 -11 0
-3 -12 0
-3 -13 0
-3 -14 0
-3 -15 0
-3 -16 0
-3 -17 0
-3 -18 0
-3 -19 0
-3 -20 0
-3 -21 0
-3 -22 0
-3 -23 0
-3 -24 0
-4 -5 0
-4 -6 0
-4 -7 0
-4 -8 0
-4 -9 0
-4 -10 0
-4 -11 0
-4 -12 0
-4 -13 0
-4 -14 0
-4 -15 0
-4 -16 0
-4 -17 0
-4 -18 0
-4 -19 0
-4 -20 0
-4 -21 0
-4 -22 0
-4 -23 0
-4 -24 0
-5 -6 0
-5 -7 0
-5 -8 0
-5 -9 0
-5 -10 0
-5 -11 0
-5 -12 0
-5 -13 0
-5 -14 0
-5 -15 0
-5 -16 0
-5 -17 0
-5 -18 0
-5 -19 0
-5 -20 0
-5 -21 0
-5 -22 0
-5 -23 0
-5 -24 0
-6 -7 0
-6 -8 0
-6 -9 0
-6 -10 0
-6 -11 0
-6 -12 0
-6 -13 0
-6 -14 0
-6 -15 0
-6 -16 0
-6 -17 0
-6 -18 0
-6 -19 0
-6 -20 0
-6 -21 0
-6 -22 0
-6 -23 0
-6 -24 0
-7 -8 0
-7 -9 0
-7 -10 0
-7 -11 0
-7 -12 0
-7 -13 0
-7 -14 0
-7 -15 0
-7 -16 0
-7 -17 0
-7 -18 0
-7 -19 0
-7 -20 0
-7 -21 0
-7 -22 0
-7 -23 0
-7 -24 0
-8 -9 0
-8 -10 0
-8 -11 0
-8 -12 0
-8 -13 0
-8 -14 0
-8 -15 0
-8 -16 0
-8 -17 0
-8 -18 0
-8 -19 0
-8 -20 0
-8 -21 0
-8 -22 0
-8 -23 0
-8 -24 0
-9 -10 0
-9 -11 0
-9 -12 0
-9 -13 0
-9 -14 0
-9 -15 0
-9 -16 0
-9 -17 0
-9 -18 0
-9 -19 0
-9 -20 0
-9 -21 0
-9 -22 0
-9 -23 0
-9 -24 0
-10 -11 0
-10 -12 0
-10 -13 0
-10 -14 0
-10 -15 0
-10 -16 0
-10 -17 0
-10 -18 0
-10 -19 0
-10 -20 0
-10 -21 0
-10 -22 0
-10 -23 0
-10 -24 0
-11 -12 0
-11 -13 0
-11 -14 0
-11 -15 0
-11 -16 0
-11 -17 0
-11 -18 0
-11 -19 0
-11 -20 0
-11 -21 0
-11 -22 0
-11 -23 0
-11 -24 0
-12 -13 0
-12 -14 0
-12 -15 0
-12 -16 0
-12 -17 0
-12 -18 0
-12 -19 0
-12 -20 0
-12 -21 0
-12 -22 0
-12 -23 0
-12 -24 0
-13 -14 0
-13 -15 0
-13 -16 0
-13 -17 0
-13 -18 0
-13 -19 0
-13 -20 0
-13 -21 0
-13 -22 0
-13 -23 0
-13 -24 0
-14 -15 0
-14 -16 0
-14 -17 0
-14 -18 0
-14 -19 0
-14 -20 0
-14 -21 0
-14 -22 0
-14 -23 0
-14 -24 0
-15 -16 0
-15 -17 0
-15 -18 0
-15 -19 0
-15 -20 0
-15 -21 0
-15 -22 0
-15 -23 0
-15 -24 0
-16 -17 0
-16 -18 0
-16 -19 0
-16 -20 0
-16 -21 0
-16 -22 0
-16 -23 0
-16 -24 0
-17 -18 0
-17 -19 0
-17 -20 0
-17 -21 0
-17 -22 0
-17 -23 0
-17 -24 0
-18 -19 0
-18 -20 0
-18 -21 0
-18 -22 0
-18 -23 0
-18 -24 0
-19 -20 0
-19 -21 0
-19 -22 0
-19 -23 0
-19 -24 0
-20 -21 0
-20 -22 0
-20 -23 0
-20 -24 0
-21 -22 0
-21 -23 0
-21 -24 0
-22 -23 0
-22 -24 0
-23 -24 0
25 26 27 28 29 30 31 32 33 34 35 36 37 38 39 40 41 42 43 44 45 46 47 48 0
-25 -26 0
-25 -27 0
-25 -28 0
-25 -29 0
-25 -30 0
-25 -31 0
-25 -32 0
-25 -33 0
-25 -34 0
-25 -35 0
-25 -36 0
-25 -37 0
-25 -38 0
-25 -39 0
-25 -40 0
-25 -41 0
-25 -42 0
-25 -43 0
-25 -44 0
-25 -45 0
-25 -46 0
-25 -47 0
-25 -48 0
-26 -27 0
-26 -28 0
-26 -29 0
-26 -30 0
-26 -31 0
-26 -32 0
-26 -33 0
-26 -34 0
-26 -35 0
-26 -36 0
-26 -37 0
-26 -38 0
-26 -39 0
-26 -40 0
-26 -41 0
-26 -42 0
-26 -43 0
-26 -44 0
-26 -45 0
-26 -46 0
-26 -47 0
-26 -48 0
-27 -28 0
-27 -29 0
-27 -30 0
-27 -31 0
-27 -32 0
-27 -33 0
-27 -34 0
-27 -35 0
-27 -36 0
-27 -37 0
-27 -38 0
-27 -39 0
-27 -40 0
-27 -41 0
-27 -42 0
-27 -43 0
-27 -44 0
-27 -45 0
-27 -46 0
-27 -47 0
-27 -48 0
-28 -29 0
-28 -30 0
-28 -31 0
-28 -32 0
-28 -33 0
-28 -34 0
-28 -35 0
-28 -36 0
-28 -37 0
-28 -38 0
-28 -39 0
-28 -40 0
-28 -41 0
-28 -42 0
-28 -43 0
-28 -44 0
-28 -45 0
-28 -46 0
-28 -47 0
-28 -48 0
-29 -30 0
-29 -31 0
-29 -32 0
-29 -33 0
-29 -34 0
-29 -35 0
-29 -36 0
-29 -37 0
-29 -38 0
-29 -39 0
-29 -40 0
-29 -41 0
-29 -42 0
-29 -43 0
-29 -44 0
-29 -45 0
-29 -46 0
-29 -47 0
-29 -48 0
-30 -31 0
-30 -32 0
-30 -33 0
-30 -34 0
-30 -35 0
-30 -36 0
-30 -37 0
-30 -38 0
-30 -39 0
-30 -40 0
-30 -41 0
-30 -42 0
-30 -43 0
-30 -44 0
-30 -45 0
-30 -46 0
-30 -47 0
-30 -48 0
-31 -32 0
-31 -33 0
-31 -34 0
-31 -35 0
-31 -36 0
-31 -37 0
-31 -38 0
-31 -39 0
-31 -40 0
-31 -41 0
-31 -42 0
-31 -43 0
-31 -44 0
-31 -45 0
-31 -46 0
-31 -47 0
-31 -48 0
-32 -33 0
-32 -34 0
-32 -35 0
-32 -36 0
-32 -37 0
-32 -38 0
-32 -39 0
-32 -40 0
-32 -41 0
-32 -42 0
-32 -43 0
-32 -44 0
-32 -45 0
-32 -46 0
-32 -47 0
-32 -48 0
-33 -34 0
-33 -35 0
-33 -36 0
-33 -37 0
-33 -38 0
-33 -39 0
-33 -40 0
-33 -41 0
-33 -42 0
-33 -43 0
-33 -44 0
-33 -45 0
-33 -46 0
-33 -47 0
-33 -48 0
-34 -35 0
-34 -36 0
-34 -37 0
-34 -38 0
-34 -39 0
-34 -40 0
-34 -41 0
-34 -42 0
-34 -43 0
-34 -44 0
-34 -45 0
-34 -46 0
-34 -47 0
-34 -48 0
-35 -36 0
-35 -37 0
-35 -38 0
-35 -39 0
-35 -40 0
-35 -41 0
-35 -42 0
-35 -43 0
-35 -44 0
-35 -45 0
-35 -46 0
-35 -47 0
-35 -48 0
-36 -37 0
-36 -38 0
-36 -39 0
-36 -40 0
-36 -41 0
-36 -42 0
-36 -43 0
-36 -44 0
-36 -45 0
-36 -46 0
-36 -47 0
-36 -48 0
-37 -38 0
-37 -39 0
-37 -40 0
-37 -41 0
-37 -42 0
-37 -43 0
-37 -44 0
-37 -45 0
-37 -46 0
-37 -47 0
-37 -48 0
-38 -39 0
-38 -40 0
-38 -41 0
-38 -42 0
-38 -43 0
-38 -44 0
-38 -45 0
-38 -46 0
-38 -47 0
-38 -48 0
-39 -40 0
-39 -41 0
-39 -42 0
-39 -43 0
-39 -44 0
-39 -45 0
-39 -46 0
-39 -47 0
-39 -48 0
-40 -41 0
-40 -42 0
-40 -43 0
-40 -44 0
-40 -45 0
-40 -46 0
-40 -47 0
-40 -48 0
-41 -42 0
-41 -43 0
-41 -44 0
-41 -45 0
-41 -46 0
-41 -47 0
-41 -48 0
-42 -43 0
-42 -44 0
-42 -45 0
-42 -46 0
-42 -47 0
-42 -48 0
-43 -44 0
-43 -45 0
-43 -46 0
-43 -47 0
-43 -48 0
-44 -45 0
-44 -46 0
-44 -47 0
-44 -48 0
-45 -46 0
-45 -47 0
-45 -48 0
-46 -47 0
-46 -48 0
-47 -48 0
49 50 51 52 53 54 55 56 57 58 59 60 61 62 63 64 65 66 67 68 69 0
-49 -50 0
-49 -51 0
-49 -52 0
-49 -53 0
-49 -54 0
-49 -55 0
-49 -56 0
-49 -57 0
-49 -58 0
-49 -59 0
-49 -60 0
-49 -61 0
-49 -62 0
-49 -63 0
-49 -64 0
-49 -65 0
-49 -66 0
-49 -67 0
-49 -68 0
-49 -69 0
-50 -51 0
-50 -52 0
-50 -53 0
-50 -54 0
-50 -55 0
-50 -56 0
-50 -57 0
-50 -58 0
-50 -59 0
-50 -60 0
-50 -61 0
-50 -62 0
-50 -63 0
-50 -64 0
-50 -65 0
-50 -66 0
-50 -67 0
-50 -68 0
-50 -69 0
-51 -52 0
-51 -53 0
-51 -54 0
-51 -55 0
-51 -56 0
-51 -57 0
-51 -58 0
-51 -59 0
-51 -60 0
-51 -61 0
-51 -62 0
-51 -63 0
-51 -64 0
-51 -65 0
-51 -66 0
-51 -67 0
-51 -68 0
-51 -69 0
-52 -53 0
-52 -54 0
-52 -55 0
-52 -56 0
-52 -57 0
-52 -58 0
-52 -59 0
-52 -60 0
-52 -61 0
-52 -62 0
-52 -63 0
-52 -64 0
-52 -65 0
-52 -66 0
-52 -67 0
-52 -68 0
-52 -69 0
-53 -54 0
-53 -55 0
-53 -56 0
-53 -57 0
-53 -58 0
-53 -59 0
-53 -60 0
-53 -61 0
-53 -62 0
-53 -63 0
-53 -64 0
-53 -65 0
-53 -66 0
-53 -67 0
-53 -68 0
-53 -69 0
-54 -55 0
-54 -56 0
-54 -57 0
-54 -58 0
-54 -59 0
-54 -60 0
-54 -61 0
-54 -62 0
-54 -63 0
-54 -64 0
-54 -65 0
-54 -66 0
-54 -67 0
-54 -68 0
-54 -69 0
-55 -56 0
-55 -57 0
-55 -58 0
-55 -59 0
-55 -60 0
-55 -61 0
-55 -62 0
-55 -63 0
-55 -64 0
-55 -65 0
-55 -66 0
-55 -67 0
-55 -68 0
-55 -69 0
-56 -57 0
-56 -58 0
-56 -59 0
-56 -60 0
-56 -61 0
-56 -62 0
-56 -63 0
-56 -64 0
-56 -65 0
-56 -66 0
-56 -67 0
-56 -68 0
-56 -69 0
-57 -58 0
-57 -59 0
-57 -60 0
-57 -61 0
-57 -62 0
-57 -63 0
-57 -64 0
-57 -65 0
-57 -66 0
-57 -67 0
-57 -68 0
-57 -69 0
-58 -59 0
-58 -60 0
-58 -61 0
-58 -62 0
-58 -63 0
-58 -64 0
-58 -65 0
-58 -66 0
-58 -67 0
-58 -68 0
-58 -69 0
-59 -60 0
-59 -61 0
-59 -62 0
-59 -63 0
-59 -64 0
-59 -65 0
-59 -66 0
-59 -67 0
-59 -68 0
-59 -69 0
-60 -61 0
-60 -62 0
-60 -63 0
-60 -64 0
-60 -65 0
-60 -66 0
-60 -67 0
-60 -68 0
-60 -69 0
-61 -62 0
-61 -63 0
-61 -64 0
-61 -65 0
-61 -66 0
-61 -67 0
-61 -68 0
-61 -69 0
-62 -63 0
-62 -64 0
-62 -65 0
-62 -66 0
-62 -67 0
-62 -68 0
-62 -69 0
-63 -64 0
-63 -65 0
-63 -66 0
-63 -67 0
-63 -68 0
-63 -69 0
-64 -65 0
-64 -66 0
-64 -67 0
-64 -68 0
-64 -69 0
-65 -66 0
-65 -67 0
-65 -68 0
-65 -69 0
-66 -67 0
-66 -68 0
-66 -69 0
-67 -68 0
-67 -69 0
-68 -69 0
70 71 72 73 74 75 76 77 78 79 80 81 82 83 84 85 86 87 88 89 90 0
-70 -71 0
-70 -72 0
-70 -73 0
-70 -74 0
-70 -75 0
-70 -76 0
-70 -77 0
-70 -78 0
-70 -79 0
-70 -80 0
-70 -81 0
-70 -82 0
-70 -83 0
-70 -84 0
-70 -85 0
-70 -86 0
-70 -87 0
-70 -88 0
-70 -89 0
-70 -90 0
-71 -72 0
-71 -73 0
-71 -74 0
-71 -75 0
-71 -76 0
-71 -77 0
-71 -78 0
-71 -79 0
-71 -80 0
-71 -81 0
-71 -82 0
-71 -83 0
-71 -84 0
-71 -85 0
-71 -86 0
-71 -87 0
-71 -88 0
-71 -89 0
-71 -90 0
-72 -73 0
-72 -74 0
-72 -75 0
-72 -76 0
-72 -77 0
-72 -78 0
-72 -79 0
-72 -80 0
-72 -81 0
-72 -82 0
-72 -83 0
-72 -84 0
-72 -85 0
-72 -86 0
-72 -87 0
-72 -88 0
-72 -89 0
-72 -90 0
-73 -74 0
-73 -75 0
-73 -76 0
-73 -77 0
-73 -78 0
-73 -79 0
-73 -80 0
-73 -81 0
-73 -82 0
-73 -83 0
-73 -84 0
-73 -85 0
-73 -86 0
-73 -87 0
-73 -88 0
-73 -89 0
-73 -90 0
-74 -75 0
-74 -76 0
-74 -77 0
-74 -78 0
-74 -79 0
-74 -80 0
-74 -81 0
-74 -82 0
-74 -83 0
-74 -84 0
-74 -85 0
-74 -86 0
-74 -87 0
-74 -88 0
-74 -89 0
-74 -90 0
-75 -76 0
-75 -77 0
-75 -78 0
-75 -79 0
-75 -80 0
-75 -81 0
-75 -82 0
-75 -83 0
-75 -84 0
-75 -85 0
-75 -86 0
-75 -87 0
-75 -88 0
-75 -89 0
-75 -90 0
-76 -77 0
-76 -78 0
-76 -79 0
-76 -80 0
-76 -81 0
-76 -82 0
-76 -83 0
-76 -84 0
-76 -85 0
-76 -86 0
-76 -87 0
-76 -88 0
-76 -89 0
-76 -90 0
-77 -78 0
-77 -79 0
-77 -80 0
-77 -81 0
-77 -82 0
-77 -83 0
-77 -84 0
-77 -85 0
-77 -86 0
-77 -87 0
-77 -88 0
-77 -89 0
-77 -90 0
-78 -79 0
-78 -80 0
-78 -81 0
-78 -82 0
-78 -83 0
-78 -84 0
-78 -85 0
-78 -86 0
-78 -87 0
-78 -88 0
-78 -89 0
-78 -90 0
-79 -80 0
-79 -81 0
-79 -82 0
-79 -83 0
-79 -84 0
-79 -85 0
-79 -86 0
-79 -87 0
-79 -88 0
-79 -89 0
-79 -90 0
-80 -81 0
-80 -82 0
-80 -83 0
-80 -84 0
-80 -85 0
-80 -86 0
-80 -87 0
-80 -88 0
-80 -89 0
-80 -90 0
-81 -82 0
-81 -83 0
-81 -84 0
-81 -85 0
-81 -86 0
-81 -87 0
-81 -88 0
-81 -89 0
-81 -90 0
-82 -83 0
-82 -84 0
-82 -85 0
-82 -86 0
-82 -87 0
-82 -88 0
-82 -89 0
-82 -90 0
-83 -84 0
-83 -85 0
-83 -86 0
-83 -87 0
-83 -88 0
-83 -89 0
-83 -90 0
-84 -85 0
-84 -86 0
-84 -87 0
-84 -88 0
-84 -89 0
-84 -90 0
-85 -86 0
-85 -87 0
-85 -88 0
-85 -89 0
-85 -90 0
-86 -87 0
-86 -88 0
-86 -89 0
-86 -90 0
-87 -88 0
-87 -89 0
-87 -90 0
-88 -89 0
-88 -90 0
-89 -90 0
91 92 93 94 95 96 97 98 99 100 101 102 103 104 105 106 107 108 109 110 111 0
-91 -92 0
-91 -93 0
-91 -94 0
-91 -95 0
-91 -96 0
-91 -97 0
-91 -98 0
-91 -99 0
-91 -100 0
-91 -101 0
-91 -102 0
-91 -103 0
-91 -104 0
-91 -105 0
-91 -106 0
-91 -107 0
-91 -108 0
-91 -109 0
-91 -110 0
-91 -111 0
-92 -93 0
-92 -94 0
-92 -95 0
-92 -96 0
-92 -97 0
-92 -98 0
-92 -99 0
-92 -100 0
-92 -101 0
-92 -102 0
-92 -103 0
-92 -104 0
-92 -105 0
-92 -106 0
-92 -107 0
-92 -108 0
-92 -109 0
-92 -110 0
-92 -111 0
-93 -94 0
-93 -95 0
-93 -96 0
-93 -97 0
-93 -98 0
-93 -99 0
-93 -100 0
-93 -101 0
-93 -102 0
-93 -103 0
-93 -104 0
-93 -105 0
-93 -106 0
-93 -107 0
-93 -108 0
-93 -109 0
-93 -110 0
-93 -111 0
-94 -95 0
-94 -96 0
-94 -97 0
-94 -98 0
-94 -99 0
-94 -100 0
-94 -101 0
-94 -102 0
-94 -103 0
-94 -104 0
-94 -105 0
-94 -106 0
-94 -107 0
-94 -108 0
-94 -109 0
-94 -110 0
-94 -111 0
-95 -96 0
-95 -97 0
-95 -98 0
-95 -99 0
-95 -100 0
-95 -101 0
-95 -102 0
-95 -103 0
-95 -104 0
-95 -105 0
-95 -106 0
-95 -107 0
-95 -108 0
-95 -109 0
-95 -110 0
-95 -111 0
-96 -97 0
-96 -98 0
-96 -99 0
-96 -100 0
-96 -101 0
-96 -102 0
-96 -103 0
-96 -104 0
-96 -105 0
-96 -106 0
-96 -107 0
-96 -108 0
-96 -109 0
-96 -110 0
-96 -111 0
-97 -98 0
-97 -99 0
-97 -100 0
-97 -101 0
-97 -102 0
-97 -103 0
-97 -104 0
-97 -105 0
-97 -106 0
-97 -107 0
-97 -108 0
-97 -109 0
-97 -110 0
-97 -111 0
-98 -99 0
-98 -100 0
-98 -101 0
-98 -102 0
-98 -103 0
-98 -104 0
-98 -105 0
-98 -106 0
-98 -107 0
-98 -108 0
-98 -109 0
-98 -110 0
-98 -111 0
-99 -100 0
-99 -101 0
-99 -102 0
-99 -103 0
-99 -104 0
-99 -105 0
-99 -106 0
-99 -107 0
-99 -108 0
-99 -109 0
-99 -110 0
-99 -111 0
-100 -101 0
-100 -102 0
-100 -103 0
-100 -104 0
-100 -105 0
-100 -106 0
-100 -107 0
-100 -108 0
-100 -109 0
-100 -110 0
-100 -111 0
-101 -102 0
-101 -103 0
-101 -104 0
-101 -105 0
-101 -106 0
-101 -107 0
-101 -108 0
-101 -109 0
-101 -110 0
-101 -111 0
-102 -103 0
-102 -104 0
-102 -105 0
-102 -106 0
-102 -107 0
-102 -108 0
-102 -109 0
-102 -110 0
-102 -111 0
-103 -104 0
-103 -105 0
-103 -106 0
-103 -107 0
-103 -108 0
-103 -109 0
-103 -110 0
-103 -111 0
-104 -105 0
-104 -106 0
-104 -107 0
-104 -108 0
-104 -109 0
-104 -110 0
-104 -111 0
-105 -106 0
-105 -107 0
-105 -108 0
-105 -109 0
-105 -110 0
-105 -111 0
-106 -107 0
-106 -108 0
-106 -109 0
-106 -110 0
-106 -111 0
-107 -108 0
-107 -109 0
-107 -110 0
-107 -111 0
-108 -109 0
-108 -110 0
-108 -111 0
-109 -110 0
-109 -111 0
-110 -111 0
-1 -70 0
-1 -2 0
-1 -25 0
-1 -70 0
-1 -71 0
-2 -25 0
-2 -70 0
-2 -71 0
-25 -70 0
-25 -71 0
-70 -71 0
-1 -2 0
-1 -3 0
-1 -25 0
-1 -26 0
-1 -71 0
-1 -72 0
-2 -3 0
-2 -25 0
-2 -26 0
-2 -71 0
-2 -72 0
-3 -25 0
-3 -26 0
-3 -71 0
-3 -72 0
-25 -26 0
-25 -71 0
-25 -72 0
-26 -71 0
-26 -72 0
-71 -72 0
-2 -3 0
-2 -4 0
-2 -25 0
-2 -26 0
-2 -27 0
-2 -72 0
-2 -73 0
-3 -4 0
-3 -25 0
-3 -26 0
-3 -27 0
-3 -72 0
-3 -73 0
-4 -25 0
-4 -26 0
-4 -27 0
-4 -72 0
-4 -73 0
-25 -26 0
-25 -27 0
-25 -72 0
-25 -73 0
-26 -27 0
-26 -72 0
-26 -73 0
-27 -72 0
-27 -73 0
-72 -73 0
-3 -4 0
-3 -5 0
-3 -25 0
-3 -26 0
-3 -27 0
-3 -28 0
-3 -49 0
-3 -73 0
-3 -74 0
-4 -5 0
-4 -25 0
-4 -26 0
-4 -27 0
-4 -28 0
-4 -49 0
-4 -73 0
-4 -74 0
-5 -25 0
-5 -26 0
-5 -27 0
-5 -28 0
-5 -49 0
-5 -73 0
-5 -74 0
-25 -26 0
-25 -27 0
-25 -28 0
-25 -49 0
-25 -73 0
-25 -74 0
-26 -27 0
-26 -28 0
-26 -49 0
-26 -73 0
-26 -74 0
-27 -28 0
-27 -49 0
-27 -73 0
-27 -74 0
-28 -49 0
-28 -73 0
-28 -74 0
-49 -73 0
-49 -74 0
-73 -74 0
-4 -5 0
-4 -6 0
-4 -26 0
-4 -27 0
-4 -28 0
-4 -29 0
-4 -49 0
-4 -50 0
-4 -74 0
-4 -75 0
-4 -91 0
-5 -6 0
-5 -26 0
-5 -27 0
-5 -28 0
-5 -29 0
-5 -49 0
-5 -50 0
-5 -74 0
-5 -75 0
-5 -91 0
-6 -26 0
-6 -27 0
-6 -28 0
-6 -29 0
-6 -49 0
-6 -50 0
-6 -74 0
-6 -75 0
-6 -91 0
-26 -27 0
-26 -28 0
-26 -29 0
-26 -49 0
-26 -50 0
-26 -74 0
-26 -75 0
-26 -91 0
-27 -28 0
-27 -29 0
-27 -49 0
-27 -50 0
-27 -74 0
-27 -75 0
-27 -91 0
-28 -29 0
-28 -49 0
-28 -50 0
-28 -74 0
-28 -75 0
-28 -91 0
-29 -49 0
-29 -50 0
-29 -74 0
-29 -75 0
-29 -91 0
-49 -50 0
-49 -74 0
-49 -75 0
-49 -91 0
-50 -74 0
-50 -75 0
-50 -91 0
-74 -75 0
-74 -91 0
-75 -91 0
-5 -6 0
-5 -7 0
-5 -27 0
-5 -28 0
-5 -29 0
-5 -30 0
-5 -49 0
-5 -50 0
-5 -51 0
-5 -75 0
-5 -76 0
-5 -91 0
-5 -92 0
-6 -7 0
-6 -27 0
-6 -28 0
-6 -29 0
-6 -30 0
-6 -49 0
-6 -50 0
-6 -51 0
-6 -75 0
-6 -76 0
-6 -91 0
-6 -92 0
-7 -27 0
-7 -28 0
-7 -29 0
-7 -30 0
-7 -49 0
-7 -50 0
-7 -51 0
-7 -75 0
-7 -76 0
-7 -91 0
-7 -92 0
-27 -28 0
-27 -29 0
-27 -30 0
-27 -49 0
-27 -50 0
-27 -51 0
-27 -75 0
-27 -76 0
-27 -91 0
-27 -92 0
-28 -29 0
-28 -30 0
-28 -49 0
-28 -50 0
-28 -51 0
-28 -75 0
-28 -76 0
-28 -91 0
-28 -92 0
-29 -30 0
-29 -49 0
-29 -50 0
-29 -51 0
-29 -75 0
-29 -76 0
-29 -91 0
-29 -92 0
-30 -49 0
-30 -50 0
-30 -51 0
-30 -75 0
-30 -76 0
-30 -91 0
-30 -92 0
-49 -50 0
-49 -51 0
-49 -75 0
-49 -76 0
-49 -91 0
-49 -92 0
-50 -51 0
-50 -75 0
-50 -76 0
-50 -91 0
-50 -92 0
-51 -75 0
-51 -76 0
-51 -91 0
-51 -92 0
-75 -76 0
-75 -91 0
-75 -92 0
-76 -91 0
-76 -92 0
-91 -92 0
-6 -7 0
-6 -8 0
-6 -28 0
-6 -29 0
-6 -30 0
-6 -31 0
-6 -49 0
-6 -50 0
-6 -51 0
-6 -52 0
-6 -76 0
-6 -91 0
-6 -92 0
-6 -93 0
-7 -8 0
-7 -28 0
-7 -29 0
-7 -30 0
-7 -31 0
-7 -49 0
-7 -50 0
-7 -51 0
-7 -52 0
-7 -76 0
-7 -91 0
-7 -92 0
-7 -93 0
-8 -28 0
-8 -29 0
-8 -30 0
-8 -31 0
-8 -49 0
-8 -50 0
-8 -51 0
-8 -52 0
-8 -76 0
-8 -91 0
-8 -92 0
-8 -93 0
-28 -29 0
-28 -30 0
-28 -31 0
-28 -49 0
-28 -50 0
-28 -51 0
-28 -52 0
-28 -76 0
-28 -91 0
-28 -92 0
-28 -93 0
-29 -30 0
-29 -31 0
-29 -49 0
-29 -50 0
-29 -51 0
-29 -52 0
-29 -76 0
-29 -91 0
-29 -92 0
-29 -93 0
-30 -31 0
-30 -49 0
-30 -50 0
-30 -51 0
-30 -52 0
-30 -76 0
-30 -91 0
-30 -92 0
-30 -93 0
-31 -49 0
-31 -50 0
-31 -51 0
-31 -52 0
-31 -76 0
-31 -91 0
-31 -92 0
-31 -93 0
-49 -50 0
-49 -51 0
-49 -52 0
-49 -76 0
-49 -91 0
-49 -92 0
-49 -93 0
-50 -51 0
-50 -52 0
-50 -76 0
-50 -91 0
-50 -92 0
-50 -93 0
-51 -52 0
-51 -76 0
-51 -91 0
-51 -92 0
-51 -93 0
-52 -76 0
-52 -91 0
-52 -92 0
-52 -93 0
-76 -91 0
-76 -92 0
-76 -93 0
-91 -92 0
-91 -93 0
-92 -93 0
-7 -8 0
-7 -29 0
-7 -30 0
-7 -31 0
-7 -32 0
-7 -49 0
-7 -50 0
-7 -51 0
-7 -52 0
-7 -53 0
-7 -92 0
-7 -93 0
-7 -94 0
-8 -29 0
-8 -30 0
-8 -31 0
-8 -32 0
-8 -49 0
-8 -50 0
-8 -51 0
-8 -52 0
-8 -53 0
-8 -92 0
-8 -93 0
-8 -94 0
-29 -30 0
-29 -31 0
-29 -32 0
-29 -49 0
-29 -50 0
-29 -51 0
-29 -52 0
-29 -53 0
-29 -92 0
-29 -93 0
-29 -94 0
-30 -31 0
-30 -32 0
-30 -49 0
-30 -50 0
-30 -51 0
-30 -52 0
-30 -53 0
-30 -92 0
-30 -93 0
-30 -94 0
-31 -32 0
-31 -49 0
-31 -50 0
-31 -51 0
-31 -52 0
-31 -53 0
-31 -92 0
-31 -93 0
-31 -94 0
-32 -49 0
-32 -50 0
-32 -51 0
-32 -52 0
-32 -53 0
-32 -92 0
-32 -93 0
-32 -94 0
-49 -50 0
-49 -51 0
-49 -52 0
-49 -53 0
-49 -92 0
-49 -93 0
-49 -94 0
-50 -51 0
-50 -52 0
-50 -53 0
-50 -92 0
-50 -93 0
-50 -94 0
-51 -52 0
-51 -53 0
-51 -92 0
-51 -93 0
-51 -94 0
-52 -53 0
-52 -92 0
-52 -93 0
-52 -94 0
-53 -92 0
-53 -93 0
-53 -94 0
-92 -93 0
-92 -94 0
-93 -94 0
-8 -30 0
-8 -31 0
-8 -32 0
-8 -50 0
-8 -51 0
-8 -52 0
-8 -53 0
-8 -54 0
-8 -93 0
-8 -94 0
-8 -95 0
-30 -31 0
-30 -32 0
-30 -50 0
-30 -51 0
-30 -52 0
-30 -53 0
-30 -54 0
-30 -93 0
-30 -94 0
-30 -95 0
-31 -32 0
-31 -50 0
-31 -51 0
-31 -52 0
-31 -53 0
-31 -54 0
-31 -93 0
-31 -94 0
-31 -95 0
-32 -50 0
-32 -51 0
-32 -52 0
-32 -53 0
-32 -54 0
-32 -93 0
-32 -94 0
-32 -95 0
-50 -51 0
-50 -52 0
-50 -53 0
-50 -54 0
-50 -93 0
-50 -94 0
-50 -95 0
-51 -52 0
-51 -53 0
-51 -54 0
-51 -93 0
-51 -94 0
-51 -95 0
-52 -53 0
-52 -54 0
-52 -93 0
-52 -94 0
-52 -95 0
-53 -54 0
-53 -93 0
-53 -94 0
-53 -95 0
-54 -93 0
-54 -94 0
-54 -95 0
-93 -94 0
-93 -95 0
-94 -95 0
-9 -77 0
-9 -10 0
-9 -33 0
-9 -77 0
-9 -78 0
-10 -33 0
-10 -77 0
-10 -78 0
-33 -77 0
-33 -78 0
-77 -78 0
-9 -10 0
-9 -11 0
-9 -33 0
-9 -34 0
-9 -78 0
-9 -79 0
-10 -11 0
-10 -33 0
-10 -34 0
-10 -78 0
-10 -79 0
-11 -33 0
-11 -34 0
-11 -78 0
-11 -79 0
-33 -34 0
-33 -78 0
-33 -79 0
-34 -78 0
-34 -79 0
-78 -79 0
-10 -11 0
-10 -12 0
-10 -33 0
-10 -34 0
-10 -35 0
-10 -79 0
-10 -80 0
-11 -12 0
-11 -33 0
-11 -34 0
-11 -35 0
-11 -79 0
-11 -80 0
-12 -33 0
-12 -34 0
-12 -35 0
-12 -79 0
-12 -80 0
-33 -34 0
-33 -35 0
-33 -79 0
-33 -80 0
-34 -35 0
-34 -79 0
-34 -80 0
-35 -79 0
-35 -80 0
-79 -80 0
-11 -12 0
-11 -13 0
-11 -33 0
-11 -34 0
-11 -35 0
-11 -36 0
-11 -56 0
-11 -80 0
-11 -81 0
-12 -13 0
-12 -33 0
-12 -34 0
-12 -35 0
-12 -36 0
-12 -56 0
-12 -80 0
-12 -81 0
-13 -33 0
-13 -34 0
-13 -35 0
-13 -36 0
-13 -56 0
-13 -80 0
-13 -81 0
-33 -34 0
-33 -35 0
-33 -36 0
-33 -56 0
-33 -80 0
-33 -81 0
-34 -35 0
-34 -36 0
-34 -56 0
-34 -80 0
-34 -81 0
-35 -36 0
-35 -56 0
-35 -80 0
-35 -81 0
-36 -56 0
-36 -80 0
-36 -81 0
-56 -80 0
-56 -81 0
-80 -81 0
-12 -13 0
-12 -14 0
-12 -34 0
-12 -35 0
-12 -36 0
-12 -37 0
-12 -56 0
-12 -57 0
-12 -81 0
-12 -82 0
-12 -98 0
-13 -14 0
-13 -34 0
-13 -35 0
-13 -36 0
-13 -37 0
-13 -56 0
-13 -57 0
-13 -81 0
-13 -82 0
-13 -98 0
-14 -34 0
-14 -35 0
-14 -36 0
-14 -37 0
-14 -56 0
-14 -57 0
-14 -81 0
-14 -82 0
-14 -98 0
-34 -35 0
-34 -36 0
-34 -37 0
-34 -56 0
-34 -57 0
-34 -81 0
-34 -82 0
-34 -98 0
-35 -36 0
-35 -37 0
-35 -56 0
-35 -57 0
-35 -81 0
-35 -82 0
-35 -98 0
-36 -37 0
-36 -56 0
-36 -57 0
-36 -81 0
-36 -82 0
-36 -98 0
-37 -56 0
-37 -57 0
-37 -81 0
-37 -82 0
-37 -98 0
-56 -57 0
-56 -81 0
-56 -82 0
-56 -98 0
-57 -81 0
-57 -82 0
-57 -98 0
-81 -82 0
-81 -98 0
-82 -98 0
-13 -14 0
-13 -15 0
-13 -35 0
-13 -36 0
-13 -37 0
-13 -38 0
-13 -56 0
-13 -57 0
-13 -58 0
-13 -82 0
-13 -83 0
-13 -98 0
-13 -99 0
-14 -15 0
-14 -35 0
-14 -36 0
-14 -37 0
-14 -38 0
-14 -56 0
-14 -57 0
-14 -58 0
-14 -82 0
-14 -83 0
-14 -98 0
-14 -99 0
-15 -35 0
-15 -36 0
-15 -37 0
-15 -38 0
-15 -56 0
-15 -57 0
-15 -58 0
-15 -82 0
-15 -83 0
-15 -98 0
-15 -99 0
-35 -36 0
-35 -37 0
-35 -38 0
-35 -56 0
-35 -57 0
-35 -58 0
-35 -82 0
-35 -83 0
-35 -98 0
-35 -99 0
-36 -37 0
-36 -38 0
-36 -56 0
-36 -57 0
-36 -58 0
-36 -82 0
-36 -83 0
-36 -98 0
-36 -99 0
-37 -38 0
-37 -56 0
-37 -57 0
-37 -58 0
-37 -82 0
-37 -83 0
-37 -98 0
-37 -99 0
-38 -56 0
-38 -57 0
-38 -58 0
-38 -82 0
-38 -83 0
-38 -98 0
-38 -99 0
-56 -57 0
-56 -58 0
-56 -82 0
-56 -83 0
-56 -98 0
-56 -99 0
-57 -58 0
-57 -82 0
-57 -83 0
-57 -98 0
-57 -99 0
-58 -82 0
-58 -83 0
-58 -98 0
-58 -99 0
-82 -83 0
-82 -98 0
-82 -99 0
-83 -98 0
-83 -99 0
-98 -99 0
-14 -15 0
-14 -16 0
-14 -36 0
-14 -37 0
-14 -38 0
-14 -39 0
-14 -56 0
-14 -57 0
-14 -58 0
-14 -59 0
-14 -83 0
-14 -98 0
-14 -99 0
-14 -100 0
-15 -16 0
-15 -36 0
-15 -37 0
-15 -38 0
-15 -39 0
-15 -56 0
-15 -57 0
-15 -58 0
-15 -59 0
-15 -83 0
-15 -98 0
-15 -99 0
-15 -100 0
-16 -36 0
-16 -37 0
-16 -38 0
-16 -39 0
-16 -56 0
-16 -57 0
-16 -58 0
-16 -59 0
-16 -83 0
-16 -98 0
-16 -99 0
-16 -100 0
-36 -37 0
-36 -38 0
-36 -39 0
-36 -56 0
-36 -57 0
-36 -58 0
-36 -59 0
-36 -83 0
-36 -98 0
-36 -99 0
-36 -100 0
-37 -38 0
-37 -39 0
-37 -56 0
-37 -57 0
-37 -58 0
-37 -59 0
-37 -83 0
-37 -98 0
-37 -99 0
-37 -100 0
-38 -39 0
-38 -56 0
-38 -57 0
-38 -58 0
-38 -59 0
-38 -83 0
-38 -98 0
-38 -99 0
-38 -100 0
-39 -56 0
-39 -57 0
-39 -58 0
-39 -59 0
-39 -83 0
-39 -98 0
-39 -99 0
-39 -100 0
-56 -57 0
-56 -58 0
-56 -59 0
-56 -83 0
-56 -98 0
-56 -99 0
-56 -100 0
-57 -58 0
-57 -59 0
-57 -83 0
-57 -98 0
-57 -99 0
-57 -100 0
-58 -59 0
-58 -83 0
-58 -98 0
-58 -99 0
-58 -100 0
-59 -83 0
-59 -98 0
-59 -99 0
-59 -100 0
-83 -98 0
-83 -99 0
-83 -100 0
-98 -99 0
-98 -100 0
-99 -100 0
-15 -16 0
-15 -37 0
-15 -38 0
-15 -39 0
-15 -40 0
-15 -56 0
-15 -57 0
-15 -58 0
-15 -59 0
-15 -60 0
-15 -99 0
-15 -100 0
-15 -101 0
-16 -37 0
-16 -38 0
-16 -39 0
-16 -40 0
-16 -56 0
-16 -57 0
-16 -58 0
-16 -59 0
-16 -60 0
-16 -99 0
-16 -100 0
-16 -101 0
-37 -38 0
-37 -39 0
-37 -40 0
-37 -56 0
-37 -57 0
-37 -58 0
-37 -59 0
-37 -60 0
-37 -99 0
-37 -100 0
-37 -101 0
-38 -39 0
-38 -40 0
-38 -56 0
-38 -57 0
-38 -58 0
-38 -59 0
-38 -60 0
-38 -99 0
-38 -100 0
-38 -101 0
-39 -40 0
-39 -56 0
-39 -57 0
-39 -58 0
-39 -59 0
-39 -60 0
-39 -99 0
-39 -100 0
-39 -101 0
-40 -56 0
-40 -57 0
-40 -58 0
-40 -59 0
-40 -60 0
-40 -99 0
-40 -100 0
-40 -101 0
-56 -57 0
-56 -58 0
-56 -59 0
-56 -60 0
-56 -99 0
-56 -100 0
-56 -101 0
-57 -58 0
-57 -59 0
-57 -60 0
-57 -99 0
-57 -100 0
-57 -101 0
-58 -59 0
-58 -60 0
-58 -99 0
-58 -100 0
-58 -101 0
-59 -60 0
-59 -99 0
-59 -100 0
-59 -101 0
-60 -99 0
-60 -100 0
-60 -101 0
-99 -100 0
-99 -101 0
-100 -101 0
-16 -38 0
-16 -39 0
-16 -40 0
-16 -57 0
-16 -58 0
-16 -59 0
-16 -60 0
-16 -61 0
-16 -100 0
-16 -101 0
-16 -102 0
-38 -39 0
-38 -40 0
-38 -57 0
-38 -58 0
-38 -59 0
-38 -60 0
-38 -61 0
-38 -100 0
-38 -101 0
-38 -102 0
-39 -40 0
-39 -57 0
-39 -58 0
-39 -59 0
-39 -60 0
-39 -61 0
-39 -100 0
-39 -101 0
-39 -102 0
-40 -57 0
-40 -58 0
-40 -59 0
-40 -60 0
-40 -61 0
-40 -100 0
-40 -101 0
-40 -102 0
-57 -58 0
-57 -59 0
-57 -60 0
-57 -61 0
-57 -100 0
-57 -101 0
-57 -102 0
-58 -59 0
-58 -60 0
-58 -61 0
-58 -100 0
-58 -101 0
-58 -102 0
-59 -60 0
-59 -61 0
-59 -100 0
-59 -101 0
-59 -102 0
-60 -61 0
-60 -100 0
-60 -101 0
-60 -102 0
-61 -100 0
-61 -101 0
-61 -102 0
-100 -101 0
-100 -102 0
-101 -102 0
-17 -84 0
-17 -18 0
-17 -41 0
-17 -84 0
-17 -85 0
-18 -41 0
-18 -84 0
-18 -85 0
-41 -84 0
-41 -85 0
-84 -85 0
-17 -18 0
-17 -19 0
-17 -41 0
-17 -42 0
-17 -85 0
-17 -86 0
-18 -19 0
-18 -41 0
-18 -42 0
-18 -85 0
-18 -86 0
-19 -41 0
-19 -42 0
-19 -85 0
-19 -86 0
-41 -42 0
-41 -85 0
-41 -86 0
-42 -85 0
-42 -86 0
-85 -86 0
-18 -19 0
-18 -20 0
-18 -41 0
-18 -42 0
-18 -43 0
-18 -86 0
-18 -87 0
-19 -20 0
-19 -41 0
-19 -42 0
-19 -43 0
-19 -86 0
-19 -87 0
-20 -41 0
-20 -42 0
-20 -43 0
-20 -86 0
-20 -87 0
-41 -42 0
-41 -43 0
-41 -86 0
-41 -87 0
-42 -43 0
-42 -86 0
-42 -87 0
-43 -86 0
-43 -87 0
-86 -87 0
-19 -20 0
-19 -21 0
-19 -41 0
-19 -42 0
-19 -43 0
-19 -44 0
-19 -63 0
-19 -87 0
-19 -88 0
-20 -21 0
-20 -41 0
-20 -42 0
-20 -43 0
-20 -44 0
-20 -63 0
-20 -87 0
-20 -88 0
-21 -41 0
-21 -42 0
-21 -43 0
-21 -44 0
-21 -63 0
-21 -87 0
-21 -88 0
-41 -42 0
-41 -43 0
-41 -44 0
-41 -63 0
-41 -87 0
-41 -88 0
-42 -43 0
-42 -44 0
-42 -63 0
-42 -87 0
-42 -88 0
-43 -44 0
-43 -63 0
-43 -87 0
-43 -88 0
-44 -63 0
-44 -87 0
-44 -88 0
-63 -87 0
-63 -88 0
-87 -88 0
-20 -21 0
-20 -22 0
-20 -42 0
-20 -43 0
-20 -44 0
-20 -45 0
-20 -63 0
-20 -64 0
-20 -88 0
-20 -89 0
-20 -105 0
-21 -22 0
-21 -42 0
-21 -43 0
-21 -44 0
-21 -45 0
-21 -63 0
-21 -64 0
-21 -88 0
-21 -89 0
-21 -105 0
-22 -42 0
-22 -43 0
-22 -44 0
-22 -45 0
-22 -63 0
-22 -64 0
-22 -88 0
-22 -89 0
-22 -105 0
-42 -43 0
-42 -44 0
-42 -45 0
-42 -63 0
-42 -64 0
-42 -88 0
-42 -89 0
-42 -105 0
-43 -44 0
-43 -45 0
-43 -63 0
-43 -64 0
-43 -88 0
-43 -89 0
-43 -105 0
-44 -45 0
-44 -63 0
-44 -64 0
-44 -88 0
-44 -89 0
-44 -105 0
-45 -63 0
-45 -64 0
-45 -88 0
-45 -89 0
-45 -105 0
-63 -64 0
-63 -88 0
-63 -89 0
-63 -105 0
-64 -88 0
-64 -89 0
-64 -105 0
-88 -89 0
-88 -105 0
-89 -105 0
-21 -22 0
-21 -23 0
-21 -43 0
-21 -44 0
-21 -45 0
-21 -46 0
-21 -63 0
-21 -64 0
-21 -65 0
-21 -89 0
-21 -90 0
-21 -105 0
-21 -106 0
-22 -23 0
-22 -43 0
-22 -44 0
-22 -45 0
-22 -46 0
-22 -63 0
-22 -64 0
-22 -65 0
-22 -89 0
-22 -90 0
-22 -105 0
-22 -106 0
-23 -43 0
-23 -44 0
-23 -45 0
-23 -46 0
-23 -63 0
-23 -64 0
-23 -65 0
-23 -89 0
-23 -90 0
-23 -105 0
-23 -106 0
-43 -44 0
-43 -45 0
-43 -46 0
-43 -63 0
-43 -64 0
-43 -65 0
-43 -89 0
-43 -90 0
-43 -105 0
-43 -106 0
-44 -45 0
-44 -46 0
-44 -63 0
-44 -64 0
-44 -65 0
-44 -89 0
-44 -90 0
-44 -105 0
-44 -106 0
-45 -46 0
-45 -63 0
-45 -64 0
-45 -65 0
-45 -89 0
-45 -90 0
-45 -105 0
-45 -106 0
-46 -63 0
-46 -64 0
-46 -65 0
-46 -89 0
-46 -90 0
-46 -105 0
-46 -106 0
-63 -64 0
-63 -65 0
-63 -89 0
-63 -90 0
-63 -105 0
-63 -106 0
-64 -65 0
-64 -89 0
-64 -90 0
-64 -105 0
-64 -106 0
-65 -89 0
-65 -90 0
-65 -105 0
-65 -106 0
-89 -90 0
-89 -105 0
-89 -106 0
-90 -105 0
-90 -106 0
-105 -106 0
-22 -23 0
-22 -24 0
-22 -44 0
-22 -45 0
-22 -46 0
-22 -47 0
-22 -63 0
-22 -64 0
-22 -65 0
-22 -66 0
-22 -90 0
-22 -105 0
-22 -106 0
-22 -107 0
-23 -24 0
-23 -44 0
-23 -45 0
-23 -46 0
-23 -47 0
-23 -63 0
-23 -64 0
-23 -65 0
-23 -66 0
-23 -90 0
-23 -105 0
-23 -106 0
-23 -107 0
-24 -44 0
-24 -45 0
-24 -46 0
-24 -47 0
-24 -63 0
-24 -64 0
-24 -65 0
-24 -66 0
-24 -90 0
-24 -105 0
-24 -106 0
-24 -107 0
-44 -45 0
-44 -46 0
-44 -47 0
-44 -63 0
-44 -64 0
-44 -65 0
-44 -66 0
-44 -90 0
-44 -105 0
-44 -106 0
-44 -107 0
-45 -46 0
-45 -47 0
-45 -63 0
-45 -64 0
-45 -65 0
-45 -66 0
-45 -90 0
-45 -105 0
-45 -106 0
-45 -107 0
-46 -47 0
-46 -63 0
-46 -64 0
-46 -65 0
-46 -66 0
-46 -90 0
-46 -105 0
-46 -106 0
-46 -107 0
-47 -63 0
-47 -64 0
-47 -65 0
-47 -66 0
-47 -90 0
-47 -105 0
-47 -106 0
-47 -107 0
-63 -64 0
-63 -65 0
-63 -66 0
-63 -90 0
-63 -105 0
-63 -106 0
-63 -107 0
-64 -65 0
-64 -66 0
-64 -90 0
-64 -105 0
-64 -106 0
-64 -107 0
-65 -66 0
-65 -90 0
-65 -105 0
-65 -106 0
-65 -107 0
-66 -90 0
-66 -105 0
-66 -106 0
-66 -107 0
-90 -105 0
-90 -106 0
-90 -107 0
-105 -106 0
-105 -107 0
-106 -107 0
-23 -24 0
-23 -45 0
-23 -46 0
-23 -47 0
-23 -48 0
-23 -63 0
-23 -64 0
-23 -65 0
-23 -66 0
-23 -67 0
-23 -106 0
-23 -107 0
-23 -108 0
-24 -45 0
-24 -46 0
-24 -47 0
-24 -48 0
-24 -63 0
-24 -64 0
-24 -65 0
-24 -66 0
-24 -67 0
-24 -106 0
-24 -107 0
-24 -108 0
-45 -46 0
-45 -47 0
-45 -48 0
-45 -63 0
-45 -64 0
-45 -65 0
-45 -66 0
-45 -67 0
-45 -106 0
-45 -107 0
-45 -108 0
-46 -47 0
-46 -48 0
-46 -63 0
-46 -64 0
-46 -65 0
-46 -66 0
-46 -67 0
-46 -106 0
-46 -107 0
-46 -108 0
-47 -48 0
-47 -63 0
-47 -64 0
-47 -65 0
-47 -66 0
-47 -67 0
-47 -106 0
-47 -107 0
-47 -108 0
-48 -63 0
-48 -64 0
-48 -65 0
-48 -66 0
-48 -67 0
-48 -106 0
-48 -107 0
-48 -108 0
-63 -64 0
-63 -65 0
-63 -66 0
-63 -67 0
-63 -106 0
-63 -107 0
-63 -108 0
-64 -65 0
-64 -66 0
-64 -67 0
-64 -106 0
-64 -107 0
-64 -108 0
-65 -66 0
-65 -67 0
-65 -106 0
-65 -107 0
-65 -108 0
-66 -67 0
-66 -106 0
-66 -107 0
-66 -108 0
-67 -106 0
-67 -107 0
-67 -108 0
-106 -107 0
-106 -108 0
-107 -108 0
-24 -46 0
-24 -47 0
-24 -48 0
-24 -64 0
-24 -65 0
-24 -66 0
-24 -67 0
-24 -68 0
-24 -107 0
-24 -108 0
-24 -109 0
-46 -47 0
-46 -48 0
-46 -64 0
-46 -65 0
-46 -66 0
-46 -67 0
-46 -68 0
-46 -107 0
-46 -108 0
-46 -109 0
-47 -48 0
-47 -64 0
-47 -65 0
-47 -66 0
-47 -67 0
-47 -68 0
-47 -107 0
-47 -108 0
-47 -109 0
-48 -64 0
-48 -65 0
-48 -66 0
-48 -67 0
-48 -68 0
-48 -107 0
-48 -108 0
-48 -109 0
-64 -65 0
-64 -66 0
-64 -67 0
-64 -68 0
-64 -107 0
-64 -108 0
-64 -109 0
-65 -66 0
-65 -67 0
-65 -68 0
-65 -107 0
-65 -108 0
-65 -109 0
-66 -67 0
-66 -68 0
-66 -107 0
-66 -108 0
-66 -109 0
-67 -68 0
-67 -107 0
-67 -108 0
-67 -109 0
-68 -107 0
-68 -108 0
-68 -109 0
-107 -108 0
-107 -109 0
-108 -109 0
-31 -32 0
-31 -51 0
-31 -52 0
-31 -53 0
-31 -54 0
-31 -55 0
-31 -94 0
-31 -95 0
-31 -96 0
-32 -51 0
-32 -52 0
-32 -53 0
-32 -54 0
-32 -55 0
-32 -94 0
-32 -95 0
-32 -96 0
-51 -52 0
-51 -53 0
-51 -54 0
-51 -55 0
-51 -94 0
-51 -95 0
-51 -96 0
-52 -53 0
-52 -54 0
-52 -55 0
-52 -94 0
-52 -95 0
-52 -96 0
-53 -54 0
-53 -55 0
-53 -94 0
-53 -95 0
-53 -96 0
-54 -55 0
-54 -94 0
-54 -95 0
-54 -96 0
-55 -94 0
-55 -95 0
-55 -96 0
-94 -95 0
-94 -96 0
-95 -96 0
-32 -52 0
-32 -53 0
-32 -54 0
-32 -55 0
-32 -95 0
-32 -96 0
-32 -97 0
-52 -53 0
-52 -54 0
-52 -55 0
-52 -95 0
-52 -96 0
-52 -97 0
-53 -54 0
-53 -55 0
-53 -95 0
-53 -96 0
-53 -97 0
-54 -55 0
-54 -95 0
-54 -96 0
-54 -97 0
-55 -95 0
-55 -96 0
-55 -97 0
-95 -96 0
-95 -97 0
-96 -97 0
-39 -40 0
-39 -58 0
-39 -59 0
-39 -60 0
-39 -61 0
-39 -62 0
-39 -101 0
-39 -102 0
-39 -103 0
-40 -58 0
-40 -59 0
-40 -60 0
-40 -61 0
-40 -62 0
-40 -101 0
-40 -102 0
-40 -103 0
-58 -59 0
-58 -60 0
-58 -61 0
-58 -62 0
-58 -101 0
-58 -102 0
-58 -103 0
-59 -60 0
-59 -61 0
-59 -62 0
-59 -101 0
-59 -102 0
-59 -103 0
-60 -61 0
-60 -62 0
-60 -101 0
-60 -102 0
-60 -103 0
-61 -62 0
-61 -101 0
-61 -102 0
-61 -103 0
-62 -101 0
-62 -102 0
-62 -103 0
-101 -102 0
-101 -103 0
-102 -103 0
-40 -59 0
-40 -60 0
-40 -61 0
-40 -62 0
-40 -102 0
-40 -103 0
-40 -104 0
-59 -60 0
-59 -61 0
-59 -62 0
-59 -102 0
-59 -103 0
-59 -104 0
-60 -61 0
-60 -62 0
-60 -102 0
-60 -103 0
-60 -104 0
-61 -62 0
-61 -102 0
-61 -103 0
-61 -104 0
-62 -102 0
-62 -103 0
-62 -104 0
-102 -103 0
-102 -104 0
-103 -104 0
-47 -48 0
-47 -65 0
-47 -66 0
-47 -67 0
-47 -68 0
-47 -69 0
-47 -108 0
-47 -109 0
-47 -110 0
-48 -65 0
-48 -66 0
-48 -67 0
-48 -68 0
-48 -69 0
-48 -108 0
-48 -109 0
-48 -110 0
-65 -66 0
-65 -67 0
-65 -68 0
-65 -69 0
-65 -108 0
-65 -109 0
-65 -110 0
-66 -67 0
-66 -68 0
-66 -69 0
-66 -108 0
-66 -109 0
-66 -110 0
-67 -68 0
-67 -69 0
-67 -108 0
-67 -109 0
-67 -110 0
-68 -69 0
-68 -108 0
-68 -109 0
-68 -110 0
-69 -108 0
-69 -109 0
-69 -110 0
-108 -109 0
-108 -110 0
-109 -110 0
-48 -66 0
-48 -67 0
-48 -68 0
-48 -69 0
-48 -109 0
-48 -110 0
-48 -111 0
-66 -67 0
-66 -68 0
-66 -69 0
-66 -109 0
-66 -110 0
-66 -111 0
-67 -68 0
-67 -69 0
-67 -109 0
-67 -110 0
-67 -111 0
-68 -69 0
-68 -109 0
-68 -110 0
-68 -111 0
-69 -109 0
-69 -110 0
-69 -111 0
-109 -110 0
-109 -111 0
-110 -111 0
-53 -54 0
-53 -55 0
-53 -96 0
-53 -97 0
-54 -55 0
-54 -96 0
-54 -97 0
-55 -96 0
-55 -97 0
-96 -97 0
-54 -55 0
-54 -97 0
-55 -97 0
-60 -61 0
-60 -62 0
-60 -103 0
-60 -104 0
-61 -62 0
-61 -103 0
-61 -104 0
-62 -103 0
-62 -104 0
-103 -104 0
-61 -62 0
-61 -104 0
-62 -104 0
-67 -68 0
-67 -69 0
-67 -110 0
-67 -111 0
-68 -69 0
-68 -110 0
-68 -111 0
-69 -110 0
-69 -111 0
-110 -111 0
-68 -69 0
-68 -111 0
-69 -111 0
